; benchmark generated from python API
(set-info :status unknown)
(declare-fun W_S2_V4 () Bool)
(declare-fun W_S2_V5 () Bool)
(declare-fun W_S2_V3 () Bool)
(declare-fun R_S1_V2 () Bool)
(declare-fun W_S2_V2 () Bool)
(declare-fun R_S2_V4 () Bool)
(declare-fun R_S2_V1 () Bool)
(declare-fun W_S1_V3 () Bool)
(declare-fun W_S1_V4 () Bool)
(declare-fun R_S1_V4 () Bool)
(declare-fun W_S1_V5 () Bool)
(declare-fun R_S1_V5 () Bool)
(declare-fun R_S2_V3 () Bool)
(declare-fun R_S1_V3 () Bool)
(declare-fun R_S2_V5 () Bool)
(declare-fun W_S2_V1 () Bool)
(declare-fun W_S1_V2 () Bool)
(declare-fun R_S1_V1 () Bool)
(declare-fun R_S2_V2 () Bool)
(declare-fun R_E1_V5 () Bool)
(declare-fun R_E1_V4 () Bool)
(declare-fun R_E1_V3 () Bool)
(declare-fun R_E1_V2 () Bool)
(declare-fun W_S1_V1 () Bool)
(declare-fun R_E1_V1 () Bool)
(assert
 (let (($x808 (not (and (not R_S1_V2) (not W_S2_V3) (not W_S2_V5) (not W_S2_V4)))))
 (let (($x630 (not W_S2_V5)))
 (let (($x137 (not W_S2_V3)))
 (let (($x5250 (not W_S2_V2)))
 (let (($x1839 (not R_S2_V4)))
 (let (($x2202 (not R_S2_V1)))
 (let (($x957 (not (and $x2202 $x1839 $x5250 $x137 $x630))))
 (let (($x3862 (not W_S1_V3)))
 (let (($x5487 (not W_S1_V4)))
 (let (($x657 (not R_S1_V4)))
 (let (($x1347 (not (and $x657 $x2202 $x1839 $x5250 $x137 $x5487 $x3862))))
 (let (($x2468 (not (and W_S1_V4 W_S1_V5 $x2202 $x5250 $x137))))
 (let (($x2921 (not (and (not R_S1_V5) $x2202 $x5250 $x137 (not W_S2_V4)))))
 (let (($x555 (not (and W_S1_V4 W_S1_V5 (not R_S1_V3) (not R_S2_V3) $x2202 $x5250))))
 (let (($x478 (not W_S2_V4)))
 (let (($x2222 (not W_S1_V5)))
 (let (($x4911 (not R_S2_V3)))
 (let (($x1345 (not R_S1_V5)))
 (let (($x185 (not R_S1_V3)))
 (let (($x1627 (not (and $x185 $x1345 $x4911 $x5250 $x2222 $x478))))
 (let (($x5270 (not (and $x1345 $x5250 $x137 $x2222 $x478))))
 (let (($x472 (not (and $x1345 $x4911 $x5250 $x2222 $x5487 $x478))))
 (let (($x2709 (not (and $x185 $x1345 $x4911 $x2202 $x5250 $x478))))
 (let (($x3512 (not (and $x185 $x4911 $x2202 $x5250 $x5487 $x3862 $x478))))
 (let (($x574 (not (and $x185 $x657 $x1345 $x4911 $x2202 $x1839 $x5250))))
 (let (($x1040 (not (and W_S2_V3 W_S2_V4 W_S2_V5 $x4911 $x1839 (not R_S2_V5)))))
 (let (($x1770 (not (and $x185 $x657 $x1345 $x4911 $x1839 (not R_S2_V5) $x5250))))
 (let (($x784 (not (and W_S2_V4 W_S2_V5 $x1839 (not R_S2_V5) $x3862))))
 (let (($x2503 (not (and W_S2_V4 $x1839 $x2222 $x3862))))
 (let (($x4594 (not (and $x657 $x1345 $x1839 (not R_S2_V5) $x5250 $x137))))
 (let (($x972 (not (and $x1345 $x1839 $x5250 $x137 $x2222 $x3862))))
 (let (($x3929 (not (and $x657 $x1345 $x2202 (not R_S2_V5) $x5250 $x137))))
 (let (($x1394 (not (and $x185 $x657 $x1345 $x4911 $x2202 (not R_S2_V5) $x5250))))
 (let (($x4062 (not (and W_S2_V3 W_S2_V5 $x4911 (not R_S2_V5) $x5487))))
 (let (($x2705 (not (and $x185 $x657 $x1345 $x4911 (not R_S2_V5) $x5250 $x5487))))
 (let (($x5973 (not (and $x2202 $x1839 (not R_S2_V5) $x5250 $x137))))
 (let (($x896 (not (and $x4911 $x2202 $x1839 (not R_S2_V5) $x5250))))
 (let (($x4337 (not (and $x185 $x1345 $x4911 (not R_S2_V5) $x5250 $x478))))
 (let (($x3877 (not (and $x1345 (not R_S2_V5) $x5250 $x137 $x478))))
 (let (($x3267 (not (and W_S2_V5 (not R_S2_V5) $x5487 $x3862))))
 (let (($x153 (not (and $x185 (not R_S2_V5) $x5250 $x5487 $x3862 $x478))))
 (let (($x4778 (not (and $x4911 $x2202 (not R_S2_V5) $x5250 $x478))))
 (let (($x2702 (not (and (not R_S2_V5) $x5250 $x137 $x5487 $x3862 $x478))))
 (let (($x1993 (not (and $x185 $x4911 $x5250 $x630 $x478))))
 (let (($x3421 (not (and $x657 $x2202 $x5250 $x137 $x630))))
 (let (($x449 (not (and $x185 $x657 $x4911 $x2202 $x5250 $x630))))
 (let (($x5779 (not (and $x657 $x1839 $x5250 $x137 $x630))))
 (let (($x3051 (not (and $x185 $x657 $x4911 $x1839 $x5250 $x630))))
 (let (($x5761 (not (and $x185 $x657 $x1345 $x4911 $x1839 $x5250 $x2222))))
 (let (($x3145 (not (and $x185 $x657 $x4911 $x5250 $x5487 $x630))))
 (let (($x1786 (not (and $x185 $x657 $x5250 $x5487 $x3862 $x630))))
 (let (($x2591 (not (and $x657 $x5250 $x137 $x5487 $x630))))
 (let (($x1646 (not (and W_S2_V3 $x4911 $x2222 $x5487))))
 (let (($x2085 (not (and $x657 $x1345 $x4911 $x5250 $x2222 $x5487))))
 (let (($x2659 (not (and $x4911 $x2202 $x1839 $x5250 $x630))))
 (let (($x697 (not (and $x1839 $x5250 $x137 $x2222 $x3862 $x630))))
 (let (($x1370 (not (and $x185 $x5250 $x3862 $x630 $x478))))
 (let (($x86 (not (and $x4911 $x2202 $x5250 $x630 $x478))))
 (let (($x2021 (not (and $x5250 $x137 $x630 $x478))))
 (let (($x812 (not W_S2_V1)))
 (let (($x343 (and $x5250 $x812)))
 (let (($x1454 (not $x343)))
 (let (($x2650 (forall ((V2_0 Int) )(forall ((V3_0 Int) )(forall ((V4_0 Int) )(forall ((V5_0 Int) )(forall ((S1_V3_!3243 Int) )(forall ((S1_V3_!3253 Int) )(forall ((S1_V3_!3264 Int) )(forall ((E1_!3241 Int) )(forall ((E1_!3262 Int) )(forall ((E1_!3268 Int) )(forall ((S1_V2_!3242 Int) )(forall ((S1_V2_!3252 Int) )(forall ((S1_V2_!3263 Int) )(forall ((S2_V1_!3249 Int) )(forall ((S2_V1_!3259 Int) )(forall ((S2_V1_!3271 Int) )(forall ((S2_V1_!3276 Int) )(forall ((S1_V5_!3246 Int) )(forall ((S1_V5_!3256 Int) )(forall ((S1_V5_!3267 Int) )(forall ((S2_V2_!3247 Int) )(forall ((S2_V2_!3257 Int) )(forall ((S2_V2_!3269 Int) )(forall ((S2_V2_!3274 Int) )(forall ((S1_V4_!3245 Int) )(forall ((S1_V4_!3255 Int) )(forall ((S1_V4_!3266 Int) )(forall ((S2_V3_!3248 Int) )(forall ((S2_V3_!3258 Int) )(forall ((S2_V3_!3270 Int) )(forall ((S2_V3_!3275 Int) )(forall ((S2_V4_!3250 Int) )(forall ((S2_V4_!3260 Int) )(forall ((S2_V4_!3272 Int) )(forall ((S2_V4_!3277 Int) )(forall ((S2_V5_!3251 Int) )(forall ((S2_V5_!3261 Int) )(forall ((S2_V5_!3273 Int) )(forall ((S2_V5_!3278 Int) )(forall ((S1_V1_!3244 Int) )(forall ((S1_V1_!3254 Int) )(forall ((S1_V1_!3265 Int) )(let ((?x2699 (ite W_S1_V5 S1_V5_!3246 V5_0)))
 (let ((?x5042 (ite W_S2_V5 S2_V5_!3251 ?x2699)))
 (let (($x1253 (= ?x5042 V5_0)))
 (let (($x3245 (= S1_V5_!3256 S1_V5_!3267)))
 (let (($x2095 (ite W_S1_V5 $x3245 $x1253)))
 (let ((?x2419 (ite W_S1_V4 S1_V4_!3245 V4_0)))
 (let ((?x6030 (ite W_S2_V4 S2_V4_!3250 ?x2419)))
 (let (($x4166 (= ?x6030 V4_0)))
 (let (($x1762 (ite W_S1_V4 (= S1_V4_!3255 S1_V4_!3266) $x4166)))
 (let (($x2253 (= S2_V4_!3260 S2_V4_!3277)))
 (let (($x3772 (ite W_S2_V1 (= S2_V1_!3259 S2_V1_!3276) (= (ite W_S2_V1 S2_V1_!3249 E1_!3241) (+ 0 (ite W_S2_V1 S2_V1_!3271 E1_!3268))))))
 (let ((?x2751 (ite W_S1_V3 S1_V3_!3243 V3_0)))
 (let ((?x3415 (ite W_S2_V3 S2_V3_!3248 ?x2751)))
 (let (($x4928 (= ?x3415 V3_0)))
 (let (($x1279 (ite W_S1_V3 (= S1_V3_!3253 S1_V3_!3264) $x4928)))
 (let (($x1151 (= S2_V3_!3258 S2_V3_!3275)))
 (let ((?x1662 (ite W_S1_V2 S1_V2_!3242 V2_0)))
 (let ((?x875 (ite W_S2_V2 S2_V2_!3247 ?x1662)))
 (let (($x1399 (= ?x875 V2_0)))
 (let (($x2694 (= S1_V2_!3252 S1_V2_!3263)))
 (let (($x5876 (ite W_S1_V2 $x2694 $x1399)))
 (let (($x2824 (= S2_V2_!3257 S2_V2_!3274)))
 (let (($x1005 (and (ite W_S2_V2 $x2824 $x5876) (ite W_S2_V3 $x1151 $x1279) $x3772 (ite W_S2_V4 $x2253 $x1762) (ite W_S2_V5 (= S2_V5_!3261 S2_V5_!3278) $x2095))))
 (let (($x5059 (>= (ite W_S2_V1 S2_V1_!3276 (+ 1 (ite W_S2_V1 S2_V1_!3271 E1_!3268))) (+ (- 1) (ite W_S2_V2 S2_V2_!3274 (ite W_S1_V2 S1_V2_!3263 V2_0))))))
 (let ((?x2166 (ite W_S2_V1 S2_V1_!3271 E1_!3268)))
 (let ((?x5124 (+ 1 ?x2166)))
 (let ((?x4671 (ite W_S1_V2 S1_V2_!3263 V2_0)))
 (let ((?x2563 (ite W_S2_V2 S2_V2_!3269 ?x4671)))
 (let (($x1612 (>= (ite W_S2_V1 S2_V1_!3259 (+ 1 (ite W_S2_V1 S2_V1_!3249 E1_!3241))) (+ (- 1) (ite W_S2_V2 S2_V2_!3257 (ite W_S1_V2 S1_V2_!3252 ?x875))))))
 (let (($x2308 (and (not (<= V2_0 E1_!3241)) (not (<= ?x875 (+ 1 (ite W_S2_V1 S2_V1_!3249 E1_!3241)))) $x1612 (not (<= V2_0 E1_!3262)) (>= E1_!3262 (+ (- 1) ?x4671)) (not (<= ?x4671 E1_!3268)) (not (<= ?x2563 ?x5124)) $x5059)))
 (let (($x753 (= S1_V1_!3254 S1_V1_!3265)))
 (let (($x1345 (not R_S1_V5)))
 (let (($x4414 (or $x1345 $x1253)))
 (let (($x657 (not R_S1_V4)))
 (let (($x594 (or $x657 $x4166)))
 (let (($x185 (not R_S1_V3)))
 (let (($x993 (or $x185 $x4928)))
 (let (($x3524 (not R_S1_V2)))
 (let (($x3123 (or $x3524 $x1399)))
 (let (($x1110 (and $x3123 $x993 (or (not R_S1_V1) (= (ite W_S2_V1 S2_V1_!3249 E1_!3241) (+ (- 1) E1_!3262))) $x594 $x4414)))
 (let (($x2877 (not $x1110)))
 (let (($x443 (= V5_0 ?x5042)))
 (let (($x1706 (or $x1345 $x443)))
 (let (($x2527 (= V4_0 ?x6030)))
 (let (($x5934 (or $x657 $x2527)))
 (let (($x1573 (= V3_0 ?x3415)))
 (let (($x2720 (or $x185 $x1573)))
 (let (($x6010 (= V2_0 ?x875)))
 (let (($x2372 (or $x3524 $x6010)))
 (let (($x3956 (and $x2372 $x2720 (or (not R_S1_V1) (= E1_!3241 (+ 1 (ite W_S2_V1 S2_V1_!3249 E1_!3241)))) $x5934 $x1706)))
 (let (($x5636 (not $x3956)))
 (let (($x5823 (= S2_V5_!3278 S2_V5_!3261)))
 (let ((?x1238 (ite W_S1_V5 S1_V5_!3256 ?x5042)))
 (let ((?x2988 (ite W_S1_V5 S1_V5_!3267 V5_0)))
 (let ((?x2240 (ite W_S2_V5 S2_V5_!3273 ?x2988)))
 (let (($x3838 (not R_S2_V5)))
 (let ((?x792 (ite W_S1_V4 S1_V4_!3255 ?x6030)))
 (let ((?x1884 (ite W_S1_V4 S1_V4_!3266 V4_0)))
 (let ((?x4762 (ite W_S2_V4 S2_V4_!3272 ?x1884)))
 (let (($x1839 (not R_S2_V4)))
 (let ((?x2688 (ite W_S1_V3 S1_V3_!3253 ?x3415)))
 (let ((?x549 (ite W_S1_V3 S1_V3_!3264 V3_0)))
 (let ((?x1929 (ite W_S2_V3 S2_V3_!3270 ?x549)))
 (let (($x4911 (not R_S2_V3)))
 (let (($x2641 (and (or (not R_S2_V2) (= ?x2563 (ite W_S1_V2 S1_V2_!3252 ?x875))) (or $x4911 (= ?x1929 ?x2688)) (or (not R_S2_V1) (ite W_S2_V1 (= S2_V1_!3271 S2_V1_!3249) (= E1_!3268 E1_!3241))) (or $x1839 (= ?x4762 ?x792)) (or $x3838 (= ?x2240 ?x1238)))))
 (let (($x922 (not $x2641)))
 (let (($x219 (and (or (not R_S2_V2) (= ?x4671 ?x2563)) (or $x4911 (= ?x549 ?x1929)) (or (not R_S2_V1) (= E1_!3268 ?x5124)) (or $x1839 (= ?x1884 ?x4762)) (or $x3838 (= ?x2988 ?x2240)))))
 (let (($x3989 (not $x219)))
 (let (($x4657 (and (or (not R_S2_V2) (ite W_S1_V2 (= S1_V2_!3263 S1_V2_!3252) $x6010)) (or $x4911 (ite W_S1_V3 (= S1_V3_!3264 S1_V3_!3253) $x1573)) (or (not R_S2_V1) (= E1_!3268 (+ 1 (ite W_S2_V1 S2_V1_!3249 E1_!3241)))) (or $x1839 (ite W_S1_V4 (= S1_V4_!3266 S1_V4_!3255) $x2527)) (or $x3838 (ite W_S1_V5 (= S1_V5_!3267 S1_V5_!3256) $x443)))))
 (let (($x2972 (not $x4657)))
 (let (($x2550 (and (or (not R_S2_V2) (not W_S1_V2) (= S1_V2_!3263 S1_V2_!3242)) (or $x4911 (not W_S1_V3) (= S1_V3_!3264 S1_V3_!3243)) (or (not R_S2_V1) (= E1_!3268 E1_!3241)) (or $x1839 (not W_S1_V4) (= S1_V4_!3266 S1_V4_!3245)) (or $x3838 (not W_S1_V5) (= S1_V5_!3267 S1_V5_!3246)))))
 (let (($x1157 (not $x2550)))
 (let (($x5945 (and (or (not R_S2_V2) (= ?x1662 ?x2563)) (or $x4911 (= ?x2751 ?x1929)) (or (not R_S2_V1) (= E1_!3241 ?x5124)) (or $x1839 (= ?x2419 ?x4762)) (or $x3838 (= ?x2699 ?x2240)))))
 (let (($x2335 (not $x5945)))
 (let (($x1847 (and (or (not R_S2_V2) (ite W_S1_V2 (= S1_V2_!3242 S1_V2_!3252) $x6010)) (or $x4911 (ite W_S1_V3 (= S1_V3_!3243 S1_V3_!3253) $x1573)) (or (not R_S2_V1) (= E1_!3241 (+ 1 (ite W_S2_V1 S2_V1_!3249 E1_!3241)))) (or $x1839 (ite W_S1_V4 (= S1_V4_!3245 S1_V4_!3255) $x2527)) (or $x3838 (ite W_S1_V5 (= S1_V5_!3246 S1_V5_!3256) $x443)))))
 (let (($x3854 (not $x1847)))
 (let (($x1969 (and (or (not R_S2_V2) (= (ite W_S1_V2 S1_V2_!3252 ?x875) ?x2563)) (or $x4911 (= ?x2688 ?x1929)) (or (not R_S2_V1) (ite W_S2_V1 (= S2_V1_!3249 S2_V1_!3271) (= E1_!3241 E1_!3268))) (or $x1839 (= ?x792 ?x4762)) (or $x3838 (= ?x1238 ?x2240)))))
 (let (($x3847 (not $x1969)))
 (let (($x2893 (and (or (not R_S2_V2) (ite W_S1_V2 (= S1_V2_!3252 S1_V2_!3242) $x1399)) (or $x4911 (ite W_S1_V3 (= S1_V3_!3253 S1_V3_!3243) $x4928)) (or (not R_S2_V1) (= (ite W_S2_V1 S2_V1_!3249 E1_!3241) (+ (- 1) E1_!3241))) (or $x1839 (ite W_S1_V4 (= S1_V4_!3255 S1_V4_!3245) $x4166)) (or $x3838 (ite W_S1_V5 (= S1_V5_!3256 S1_V5_!3246) $x1253)))))
 (let (($x3583 (not $x2893)))
 (let (($x238 (and (or (not R_S2_V2) (= ?x2563 ?x4671)) (or $x4911 (= ?x1929 ?x549)) (or (not R_S2_V1) (= ?x2166 (+ (- 1) E1_!3268))) (or $x1839 (= ?x4762 ?x1884)) (or $x3838 (= ?x2240 ?x2988)))))
 (let (($x1784 (= S2_V3_!3258 S2_V3_!3270)))
 (let (($x1513 (and (or (not R_S2_V2) $x5876) (or $x4911 $x1279) (or (not R_S2_V1) (= (ite W_S2_V1 S2_V1_!3249 E1_!3241) (+ (- 1) E1_!3268))) (or $x1839 $x1762) (or $x3838 $x2095))))
 (let (($x1957 (not $x1513)))
 (let (($x2009 (and (or (not R_S2_V2) (not W_S1_V2) (= S1_V2_!3242 S1_V2_!3263)) (or $x4911 (not W_S1_V3) (= S1_V3_!3243 S1_V3_!3264)) (or (not R_S2_V1) (= E1_!3241 E1_!3268)) (or $x1839 (not W_S1_V4) (= S1_V4_!3245 S1_V4_!3266)) (or $x3838 (not W_S1_V5) (= S1_V5_!3246 S1_V5_!3267)))))
 (let (($x2025 (not $x2009)))
 (let (($x4649 (= S1_V4_!3266 S1_V4_!3255)))
 (let (($x2196 (and $x2372 $x2720 (or (not R_S1_V1) (= E1_!3262 (+ 1 (ite W_S2_V1 S2_V1_!3249 E1_!3241)))) $x5934 $x1706)))
 (let (($x2147 (not $x2196)))
 (let (($x4571 (= S1_V4_!3255 S1_V4_!3245)))
 (let (($x2446 (and $x3123 $x993 (or (not R_S1_V1) (= (ite W_S2_V1 S2_V1_!3249 E1_!3241) (+ (- 1) E1_!3241))) $x594 $x4414)))
 (let (($x4040 (not $x2446)))
 (let (($x2034 (and (or (not R_E1_V2) (= ?x4671 V2_0)) (or (not R_E1_V3) (= ?x549 V3_0)) (or (not R_E1_V4) (= ?x1884 V4_0)) (or (not R_E1_V5) (= ?x2988 V5_0)))))
 (let (($x2768 (not $x2034)))
 (let (($x4752 (= E1_!3262 E1_!3241)))
 (let (($x4992 (and (or $x4040 (= S1_V3_!3253 S1_V3_!3243)) (or (not (or (not R_S1_V1) $x4752)) (= S1_V3_!3264 S1_V3_!3243)) (or $x2147 (= S1_V3_!3264 S1_V3_!3253)) $x4752 (or $x2768 (= E1_!3268 E1_!3241)) (or $x2768 (= E1_!3268 E1_!3262)) (or $x5636 (= S1_V2_!3242 S1_V2_!3252)) (or (not (or (not R_S1_V1) (= E1_!3241 E1_!3262))) (= S1_V2_!3242 S1_V2_!3263)) (or $x2877 $x2694) (or $x3854 (= S2_V1_!3249 S2_V1_!3259)) (or $x2025 (= S2_V1_!3249 S2_V1_!3271)) (or $x2335 (= S2_V1_!3249 S2_V1_!3276)) (or $x2972 (= S2_V1_!3271 S2_V1_!3259)) (or $x3989 (= S2_V1_!3271 S2_V1_!3276)) (or $x922 (= S2_V1_!3276 S2_V1_!3259)) (or $x4040 (= S1_V5_!3256 S1_V5_!3246)) (or $x2877 $x3245) (or (not (or (not R_S1_V1) $x4752)) (= S1_V5_!3267 S1_V5_!3246)) (or $x2025 (= S2_V2_!3247 S2_V2_!3269)) (or $x2335 (= S2_V2_!3247 S2_V2_!3274)) (or $x3583 (= S2_V2_!3257 S2_V2_!3247)) (or $x1957 (= S2_V2_!3257 S2_V2_!3269)) (or $x3847 $x2824) (or $x3989 (= S2_V2_!3269 S2_V2_!3274)) (or $x4040 $x4571) (or (not (or (not R_S1_V1) $x4752)) (= S1_V4_!3266 S1_V4_!3245)) (or $x2147 $x4649) (or $x3854 (= S2_V3_!3248 S2_V3_!3258)) (or $x2025 (= S2_V3_!3248 S2_V3_!3270)) (or $x2335 (= S2_V3_!3248 S2_V3_!3275)) (or $x1957 $x1784) (or $x3847 $x1151) (or (not $x238) (= S2_V3_!3275 S2_V3_!3270)) (or $x2335 (= S2_V4_!3250 S2_V4_!3277)) (or $x3583 (= S2_V4_!3260 S2_V4_!3250)) (or $x3847 $x2253) (or $x1157 (= S2_V4_!3272 S2_V4_!3250)) (or $x2972 (= S2_V4_!3272 S2_V4_!3260)) (or $x3989 (= S2_V4_!3272 S2_V4_!3277)) (or $x3854 (= S2_V5_!3251 S2_V5_!3261)) (or $x2335 (= S2_V5_!3251 S2_V5_!3278)) (or $x1157 (= S2_V5_!3273 S2_V5_!3251)) (or $x2972 (= S2_V5_!3273 S2_V5_!3261)) (or $x3989 (= S2_V5_!3273 S2_V5_!3278)) (or $x922 $x5823) (or $x5636 (= S1_V1_!3244 S1_V1_!3254)) (or (not (or (not R_S1_V1) (= E1_!3241 E1_!3262))) (= S1_V1_!3244 S1_V1_!3265)) (or $x2877 $x753))))
 (or (not $x4992) (not $x2308) $x1005))))))))))))))))))))))))))))))))))))))))))))))))))))))))))))))))))))))))))))))))))))))))))))))))))
 )
 )
 )
 )
 )
 )
 )
 )
 )
 )
 )
 )
 )
 )
 )
 )
 )
 )
 )
 )
 )
 )
 )
 )
 )
 )
 )
 )
 )
 )
 )
 )
 )
 )
 )
 )
 )
 )
 )
 )
 )
 ))
 (let (($x4630 (or W_S2_V2 W_S2_V3 W_S2_V1 W_S2_V4 W_S2_V5)))
 (let (($x1703 (or W_S1_V2 W_S1_V3 W_S1_V4 W_S1_V5)))
 (let (($x813 (not R_S1_V1)))
 (let (($x6062 (and $x813 $x1345 $x5487 $x3862)))
 (let (($x2966 (and $x813 $x657 $x1345 $x3862)))
 (let (($x3662 (and $x185 $x813 $x1345 $x5487)))
 (let (($x544 (and $x185 $x813 $x657 $x1345)))
 (let (($x3493 (and $x185 $x813 $x657 $x2222)))
 (let (($x1462 (and $x185 $x813 $x2222 $x5487)))
 (let (($x6067 (and $x813 $x657 $x2222 $x3862)))
 (let (($x1713 (or $x343 $x6067 $x1462 $x3493 $x544 $x3662 $x2966 $x6062)))
 (let (($x3343 (not W_S1_V1)))
 (let (($x2716 (not W_S1_V2)))
 (let (($x1564 (and $x2716 $x2222 $x5487 $x3862)))
 (let (($x1760 (not R_E1_V4)))
 (let (($x3445 (and $x1760 $x2716 $x2222 $x3862)))
 (let (($x1835 (not R_E1_V3)))
 (let (($x2872 (and $x1835 $x1760 $x2716 $x2222)))
 (let (($x748 (not R_E1_V5)))
 (let (($x5853 (and $x748 $x2716 $x5487 $x3862)))
 (let (($x937 (and $x1835 $x748 $x2716 $x5487)))
 (let (($x105 (and $x1760 $x748 $x2716 $x3862)))
 (let (($x6012 (and $x1835 $x1760 $x748 $x2716)))
 (let (($x570 (and $x1835 $x2716 $x2222 $x5487)))
 (let (($x5105 (or $x570 $x6012 $x105 $x937 $x5853 $x2872 $x3445 $x1564)))
 (let (($x2005 (not R_E1_V1)))
 (and (and $x2005 $x5105 $x3343 $x1713 $x1703 $x4630 $x2650) $x1454 $x2021 $x86 $x1370 $x697 $x2659 $x2085 $x1646 $x2591 $x1786 $x3145 $x5761 $x3051 $x5779 $x449 $x3421 $x1993 $x2702 $x4778 $x153 $x3267 $x3877 $x4337 $x896 $x5973 $x2705 $x4062 $x1394 $x3929 $x972 $x4594 $x2503 $x784 $x1770 $x1040 $x574 $x3512 $x2709 $x472 $x5270 $x1627 $x555 $x2921 $x2468 $x1347 $x957 $x808)))))))))))))))))))))))))))))))))))))))))))))))))))))))))))))))))))))))))))))))))))))))))))
(check-sat)
